NAME: random_points
TYPE: TSP
DIMENSION: 19
EDGE_WEIGHT_TYPE: EUC_2D
NODE_COORD_SECTION
1 963 477
2 739 456
3 76 231
4 918 311
5 274 348
6 248 945
7 848 623
8 34 150
9 93 903
10 372 273
11 818 917
12 132 890
13 511 822
14 540 353
15 420 765
16 429 19
17 910 582
18 67 332
19 781 726
EOF
